20J7M/DAT/20J7MULL-20.dat
20 7
5.7026 5.7026
40.8815 40.8815
29.1744 29.1744
7.7638 7.7638
15.2283 15.2283
25.3149 25.3149
22.9157 22.9157
22.8357 22.8357
31.1949 31.1949
32.3537 32.3537
41.4418 41.4418
27.6217 27.6217
4.6394 4.6394
3.3549 3.3549
11.7101 11.7101
12.6789 12.6789
26.3849 26.3849
3.2636 3.2636
5.2558 5.2558
31.0005 31.0005
57.2453