20J7M/SOL/20J7MULL-20.sol
solution status: optimal solution found
objective value:                     61.6957571428571
x#1#1                                               1 	(obj:0)
x#2#3                                               1 	(obj:0)
x#3#3                                               1 	(obj:0)
x#4#7                                               1 	(obj:0)
x#5#2                                               1 	(obj:0)
x#6#5                                               1 	(obj:0)
x#7#2                                               1 	(obj:0)
x#8#2                               0.786957090961861 	(obj:0)
x#8#6                               0.213042909038139 	(obj:0)
x#9#6                                               1 	(obj:0)
x#10#5                                              1 	(obj:0)
x#11#2                              0.407771317104755 	(obj:0)
x#11#5                              0.357063713756043 	(obj:0)
x#11#7                              0.235164969139202 	(obj:0)
x#12#3                              0.329705309304233 	(obj:0)
x#12#6                              0.670294690695767 	(obj:0)
x#13#4                              0.779846855898927 	(obj:0)
x#13#6                              0.220153144101073 	(obj:0)
x#14#5                                              1 	(obj:0)
x#15#7                                              1 	(obj:0)
x#16#4                                              1 	(obj:0)
x#17#1                              0.288172529540849 	(obj:0)
x#17#3                              0.711827470459151 	(obj:0)
x#18#3                                              1 	(obj:0)
x#19#3                                              1 	(obj:0)
x#20#1                                              1 	(obj:0)
z                                    61.6957571428571 	(obj:1)
